
Gurobi 7.5.2 (mac64) logging started Wed 17 Jan 16:27:13 2018

Academic license - for non-commercial use only
Warning for adding variables: zero or small (< 1e-13) coefficients, ignored
Optimize a model with 1909 rows, 488 columns and 3818 nonzeros
Variable types: 0 continuous, 488 integer (488 binary)
Coefficient statistics:
  Matrix range     [1e+00, 1e+00]
  Objective range  [1e+00, 1e+00]
  Bounds range     [1e+00, 1e+00]
  RHS range        [1e+00, 1e+00]
Found heuristic solution: objective 427.0000000
Presolve removed 1909 rows and 488 columns
Presolve time: 0.01s
Presolve: All rows and columns removed

Explored 0 nodes (0 simplex iterations) in 0.02 seconds
Thread count was 1 (of 8 available processors)

Solution count 1: 427 

Optimal solution found (tolerance 1.00e-04)
Best objective 4.270000000000e+02, best bound 4.270000000000e+02, gap 0.0000%

Gurobi 7.5.2 (mac64) logging started Wed Jan 17 16:28:00 2018

Academic license - for non-commercial use only
Warning for adding variables: zero or small (< 1e-13) coefficients, ignored
Optimize a model with 1909 rows, 488 columns and 3625 nonzeros
Variable types: 0 continuous, 488 integer (488 binary)
Coefficient statistics:
  Matrix range     [1e+00, 1e+00]
  Objective range  [1e+00, 1e+00]
  Bounds range     [1e+00, 1e+00]
  RHS range        [1e+00, 1e+00]
Found heuristic solution: objective 427.0000000
Presolve removed 1909 rows and 488 columns
Presolve time: 0.00s
Presolve: All rows and columns removed

Explored 0 nodes (0 simplex iterations) in 0.00 seconds
Thread count was 1 (of 8 available processors)

Solution count 1: 427 

Optimal solution found (tolerance 1.00e-04)
Best objective 4.270000000000e+02, best bound 4.270000000000e+02, gap 0.0000%

Gurobi 7.5.2 (mac64) logging started Wed Jan 17 16:28:59 2018

Academic license - for non-commercial use only
Warning for adding variables: zero or small (< 1e-13) coefficients, ignored
Optimize a model with 3044 rows, 1627 columns and 7382 nonzeros
Variable types: 0 continuous, 1627 integer (1627 binary)
Coefficient statistics:
  Matrix range     [1e+00, 1e+00]
  Objective range  [1e+00, 1e+00]
  Bounds range     [1e+00, 1e+00]
  RHS range        [1e+00, 1e+00]
Found heuristic solution: objective 427.0000000
Presolve removed 3044 rows and 1627 columns
Presolve time: 0.01s
Presolve: All rows and columns removed

Explored 0 nodes (0 simplex iterations) in 0.01 seconds
Thread count was 1 (of 8 available processors)

Solution count 1: 427 

Optimal solution found (tolerance 1.00e-04)
Best objective 4.270000000000e+02, best bound 4.270000000000e+02, gap 0.0000%

Gurobi 7.5.2 (mac64) logging started Wed Jan 17 16:30:07 2018

Academic license - for non-commercial use only
Warning for adding variables: zero or small (< 1e-13) coefficients, ignored
Optimize a model with 3044 rows, 1627 columns and 7019 nonzeros
Variable types: 0 continuous, 1627 integer (1627 binary)
Coefficient statistics:
  Matrix range     [1e+00, 1e+00]
  Objective range  [1e+00, 1e+00]
  Bounds range     [1e+00, 1e+00]
  RHS range        [1e+00, 1e+00]
Found heuristic solution: objective 524.0000000
Presolve removed 3044 rows and 1627 columns
Presolve time: 0.01s
Presolve: All rows and columns removed

Explored 0 nodes (0 simplex iterations) in 0.01 seconds
Thread count was 1 (of 8 available processors)

Solution count 2: 488 524 

Optimal solution found (tolerance 1.00e-04)
Best objective 4.880000000000e+02, best bound 4.880000000000e+02, gap 0.0000%
